TasksSet/soft4.txt
# first_arrival|exe_time_dist|deadline|period_dist
#0|[1,.2;2,.8]|5|[7,.4;8,.6]
---------------------
# soft tasks
# first_arrival|exe_time_dist|deadline|period_dist|cost
0|[2,.7;3,.3]|3|[5,1]|3
0|[1,1]|3|[3,1]|3
0|[2,1]|6|[5,1]|7